p cnf 24 40                 
2 16 0
1 16 0
-2 -1 -16 0
16 -18 0
-1 17 0
-2 17 0
1 2 -17 0
17 -18 0
-16 -17 18 0
-18 1 -19 0
18 5 -19 0
1 5 -19 0
19 21 0
-1 21 0
-18 2 -20 0
18 6 -20 0
2 6 -20 0
20 22 0
-2 22 0
-21 -22 23 0
-4 -3 -7 0
7 -9 0
3 4 -8 0
8 -9 0
-6 -5 -10 0
10 -12 0
5 6 -11 0
11 -12 0
-1 3 -13 0
1 -3 -13 0
3 -3 -13 0
13 -15 0
-2 4 -14 0
2 -4 -14 0
4 -4 -14 0
14 -15 0
-23 0
9 0
12 0
15 0
